p cnf 65 150
a 8 2 15 9 3 16 1 7 14 21 28 42 33 0
d 34 2 3 0
d 53 28 42 0
d 35 8 9 0
d 37 2 3 0
d 29 15 16 0
d 58 15 16 0
d 4 2 3 0
d 5 1 2 3 0
d 6 1 2 3 0
d 10 8 9 0
d 11 7 8 9 0
d 12 7 8 9 0
d 13 1 2 3 7 8 9 0
d 17 15 16 0
d 18 14 15 16 0
d 19 14 15 16 0
d 20 1 2 3 7 8 9 14 15 16 0
d 22 1 7 0
d 23 2 3 0
d 24 1 7 2 3 0
d 25 21 1 7 2 3 0
d 26 21 1 7 2 3 0
d 27 1 2 3 7 8 9 14 15 16 21 0
d 30 28 15 16 0
d 31 28 15 16 0
d 32 1 2 3 7 8 9 14 15 16 21 28 0
d 36 2 3 8 9 0
d 38 2 3 8 9 0
d 39 33 2 3 8 9 0
d 40 33 2 3 8 9 0
d 41 1 2 3 7 8 9 14 15 16 21 28 33 0
d 43 42 33 0
d 44 42 33 0
d 45 1 2 3 7 8 9 14 15 16 21 28 33 42 0
d 46 8 9 0
d 47 8 9 0
d 48 8 9 0
d 49 2 3 8 9 0
d 50 1 7 0
d 51 2 3 8 9 1 7 0
d 52 8 9 2 3 1 7 0
d 54 14 21 0
d 55 28 42 14 21 0
d 56 8 9 2 3 1 7 28 42 14 21 0
d 57 15 16 33 0
d 59 15 16 33 0
d 60 14 21 0
d 61 15 16 0
d 62 14 21 15 16 0
d 63 15 16 33 14 21 0
d 64 8 9 2 3 1 7 28 42 14 21 15 16 33 0
d 65 1 2 3 7 8 9 14 15 16 21 28 33 42 0
4 -2 3 0
4 2 -3 0
-4 -2 -3 0
-4 2 3 0
5 -1 -4 0
5 1 4 0
-5 -1 4 0
-5 1 -4 0
6 5 0
-6 -5 0
10 -8 9 0
10 8 -9 0
-10 -8 -9 0
-10 8 9 0
11 -7 -10 0
11 7 10 0
-11 -7 10 0
-11 7 -10 0
12 11 0
-12 -11 0
13 -6 0
13 -12 0
-13 6 12 0
17 -15 16 0
17 15 -16 0
-17 -15 -16 0
-17 15 16 0
18 -14 -17 0
18 14 17 0
-18 -14 17 0
-18 14 -17 0
19 18 0
-19 -18 0
20 -13 0
20 -19 0
-20 13 19 0
-22 1 0
-22 7 0
22 -1 -7 0
-23 2 0
-23 3 0
23 -2 -3 0
24 -22 0
24 -23 0
-24 22 23 0
25 -21 -24 0
25 21 24 0
-25 -21 24 0
-25 21 -24 0
26 25 0
-26 -25 0
27 -20 0
27 -26 0
-27 20 26 0
30 -28 -29 0
30 28 29 0
-30 -28 29 0
-30 28 -29 0
31 30 0
-31 -30 0
32 -27 0
32 -31 0
-32 27 31 0
-36 34 0
-36 35 0
36 -34 -35 0
38 -36 0
38 -37 0
-38 36 37 0
39 -33 -38 0
39 33 38 0
-39 -33 38 0
-39 33 -38 0
40 39 0
-40 -39 0
41 -32 0
41 -40 0
-41 32 40 0
43 -42 -33 0
43 42 33 0
-43 -42 33 0
-43 42 -33 0
44 43 0
-44 -43 0
45 -41 0
45 -44 0
-45 41 44 0
46 -8 -9 0
46 8 9 0
-46 -8 9 0
-46 8 -9 0
-47 8 0
-47 9 0
47 -8 -9 0
48 -46 -47 0
48 46 47 0
-48 -46 47 0
-48 46 -47 0
49 -34 35 0
49 34 -35 0
-49 -34 -35 0
-49 34 35 0
50 -1 7 0
50 1 -7 0
-50 -1 -7 0
-50 1 7 0
51 -49 -50 0
51 49 50 0
-51 -49 50 0
-51 49 -50 0
-52 48 0
-52 51 0
52 -48 -51 0
54 -14 21 0
54 14 -21 0
-54 -14 -21 0
-54 14 21 0
55 -53 -54 0
55 53 54 0
-55 -53 54 0
-55 53 -54 0
-56 52 0
-56 55 0
56 -52 -55 0
-57 29 0
-57 33 0
57 -29 -33 0
59 -57 0
59 -58 0
-59 57 58 0
-60 14 0
-60 21 0
60 -14 -21 0
-61 15 0
-61 16 0
61 -15 -16 0
62 -60 0
62 -61 0
-62 60 61 0
63 -59 -62 0
63 59 62 0
-63 -59 62 0
-63 59 -62 0
-64 56 0
-64 63 0
64 -56 -63 0
65 -45 0
65 -64 0
-65 45 64 0
65 0
